;; translated from ./ctigar/nest-if3.c.vmt
;; original benchmark available at: https://es-static.fbk.eu/people/griggio/ic3ia/index.html
;; author: Alberto Griggio <griggio@fbk.eu>
(set-logic HORN)
(declare-fun state (Bool Bool Bool Bool Bool Int Int Int Int) Bool)
(assert (forall ((|.s.2| Bool) (|.s.0| Bool) (|.s.1| Bool) (|.s.0.next| Bool) (|.s.1.next| Bool) (|.s.2.next| Bool) (|.s.3.next| Bool) (|.s.4.next| Bool) (|main.i.next| Int) (|main.i| Int) (|main.k.next| Int) (|main.k| Int) (|main.l.next| Int) (|main.l| Int) (|main.n.next| Int) (|main.n| Int) (|.inputVar.0| Int) (|.s.4| Bool) (|.s.3| Bool)) (=> (let ((.def_20 (not .s.4)))
(let ((.def_17 (not .s.3)))
(let ((.def_14 (not .s.2)))
(let ((.def_10 (not .s.1)))
(let ((.def_12 (and .def_10 .s.0)))
(let ((.def_15 (and .def_12 .def_14)))
(let ((.def_18 (and .def_15 .def_17)))
(let ((.def_21 (and .def_18 .def_20)))
.def_21)))))))) (state |.s.1| |.s.0| |.s.2| |.s.3| |.s.4| |main.n| |main.l| |main.k| |main.i|))))
(assert (forall ((|.s.2| Bool) (|.s.0| Bool) (|.s.1| Bool) (|.s.0.next| Bool) (|.s.1.next| Bool) (|.s.2.next| Bool) (|.s.3.next| Bool) (|.s.4.next| Bool) (|main.i.next| Int) (|main.i| Int) (|main.k.next| Int) (|main.k| Int) (|main.l.next| Int) (|main.l| Int) (|main.n.next| Int) (|main.n| Int) (|.inputVar.0| Int) (|.s.4| Bool) (|.s.3| Bool)) (=> (and (state |.s.1| |.s.0| |.s.2| |.s.3| |.s.4| |main.n| |main.l| |main.k| |main.i|) (let ((.def_55 (not .s.0)))
(let ((.def_10 (not .s.1)))
(let ((.def_56 (and .def_10 .def_55)))
(let ((.def_14 (not .s.2)))
(let ((.def_57 (and .def_14 .def_56)))
(let ((.def_17 (not .s.3)))
(let ((.def_58 (and .def_17 .def_57)))
(let ((.def_20 (not .s.4)))
(let ((.def_286 (and .def_20 .def_58)))
(let ((.def_287 (not .def_286)))
(let ((.def_45 (not .s.0.next)))
(let ((.def_43 (not .s.1.next)))
(let ((.def_46 (and .def_43 .def_45)))
(let ((.def_41 (not .s.2.next)))
(let ((.def_47 (and .def_41 .def_46)))
(let ((.def_39 (not .s.3.next)))
(let ((.def_48 (and .def_39 .def_47)))
(let ((.def_37 (not .s.4.next)))
(let ((.def_49 (and .def_37 .def_48)))
(let ((.def_35 (= main.i main.i.next)))
(let ((.def_50 (and .def_35 .def_49)))
(let ((.def_32 (= main.k main.k.next)))
(let ((.def_51 (and .def_32 .def_50)))
(let ((.def_29 (= main.l main.l.next)))
(let ((.def_52 (and .def_29 .def_51)))
(let ((.def_26 (= main.n main.n.next)))
(let ((.def_53 (and .def_26 .def_52)))
(let ((.def_288 (or .def_53 .def_287)))
(let ((.def_90 (and .s.1.next .s.0.next)))
(let ((.def_140 (and .def_41 .def_90)))
(let ((.def_279 (and .def_39 .def_140)))
(let ((.def_280 (and .def_37 .def_279)))
(let ((.def_281 (and .def_35 .def_280)))
(let ((.def_282 (and .def_32 .def_281)))
(let ((.def_283 (and .def_29 .def_282)))
(let ((.def_284 (and .def_26 .def_283)))
(let ((.def_266 (<= main.l 0)))
(let ((.def_276 (not .def_266)))
(let ((.def_12 (and .def_10 .s.0)))
(let ((.def_15 (and .def_12 .def_14)))
(let ((.def_18 (and .def_15 .def_17)))
(let ((.def_21 (and .def_18 .def_20)))
(let ((.def_277 (and .def_21 .def_276)))
(let ((.def_278 (not .def_277)))
(let ((.def_285 (or .def_278 .def_284)))
(let ((.def_289 (and .def_285 .def_288)))
(let ((.def_106 (and .s.1.next .def_45)))
(let ((.def_165 (and .def_41 .def_106)))
(let ((.def_269 (and .def_39 .def_165)))
(let ((.def_270 (and .def_37 .def_269)))
(let ((.def_271 (and .def_35 .def_270)))
(let ((.def_272 (and .def_32 .def_271)))
(let ((.def_273 (and .def_29 .def_272)))
(let ((.def_274 (and .def_26 .def_273)))
(let ((.def_267 (and .def_21 .def_266)))
(let ((.def_268 (not .def_267)))
(let ((.def_275 (or .def_268 .def_274)))
(let ((.def_290 (and .def_275 .def_289)))
(let ((.def_85 (and .s.1 .def_55)))
(let ((.def_148 (and .def_14 .def_85)))
(let ((.def_262 (and .def_17 .def_148)))
(let ((.def_263 (and .def_20 .def_262)))
(let ((.def_264 (not .def_263)))
(let ((.def_265 (or .def_53 .def_264)))
(let ((.def_291 (and .def_265 .def_290)))
(let ((.def_256 (= main.k.next 1)))
(let ((.def_61 (and .s.2.next .def_46)))
(let ((.def_62 (and .def_39 .def_61)))
(let ((.def_63 (and .def_37 .def_62)))
(let ((.def_257 (and .def_63 .def_256)))
(let ((.def_258 (and .def_35 .def_257)))
(let ((.def_259 (and .def_29 .def_258)))
(let ((.def_260 (and .def_26 .def_259)))
(let ((.def_69 (and .s.1 .s.0)))
(let ((.def_136 (and .def_14 .def_69)))
(let ((.def_253 (and .def_17 .def_136)))
(let ((.def_254 (and .def_20 .def_253)))
(let ((.def_255 (not .def_254)))
(let ((.def_261 (or .def_255 .def_260)))
(let ((.def_292 (and .def_261 .def_291)))
(let ((.def_123 (and .def_43 .s.0.next)))
(let ((.def_176 (and .def_41 .def_123)))
(let ((.def_246 (and .def_39 .def_176)))
(let ((.def_247 (and .s.4.next .def_246)))
(let ((.def_248 (and .def_35 .def_247)))
(let ((.def_249 (and .def_32 .def_248)))
(let ((.def_250 (and .def_29 .def_249)))
(let ((.def_251 (and .def_26 .def_250)))
(let ((.def_233 (<= main.n main.k)))
(let ((.def_115 (and .s.2 .def_56)))
(let ((.def_231 (and .def_17 .def_115)))
(let ((.def_232 (and .def_20 .def_231)))
(let ((.def_244 (and .def_232 .def_233)))
(let ((.def_245 (not .def_244)))
(let ((.def_252 (or .def_245 .def_251)))
(let ((.def_293 (and .def_252 .def_292)))
(let ((.def_124 (and .s.2.next .def_123)))
(let ((.def_237 (and .def_39 .def_124)))
(let ((.def_238 (and .def_37 .def_237)))
(let ((.def_239 (and .def_35 .def_238)))
(let ((.def_240 (and .def_32 .def_239)))
(let ((.def_241 (and .def_29 .def_240)))
(let ((.def_242 (and .def_26 .def_241)))
(let ((.def_234 (not .def_233)))
(let ((.def_235 (and .def_232 .def_234)))
(let ((.def_236 (not .def_235)))
(let ((.def_243 (or .def_236 .def_242)))
(let ((.def_294 (and .def_243 .def_293)))
(let ((.def_225 (= main.l main.i.next)))
(let ((.def_107 (and .s.2.next .def_106)))
(let ((.def_152 (and .def_39 .def_107)))
(let ((.def_153 (and .def_37 .def_152)))
(let ((.def_226 (and .def_153 .def_225)))
(let ((.def_227 (and .def_32 .def_226)))
(let ((.def_228 (and .def_29 .def_227)))
(let ((.def_229 (and .def_26 .def_228)))
(let ((.def_99 (and .def_12 .s.2)))
(let ((.def_222 (and .def_17 .def_99)))
(let ((.def_223 (and .def_20 .def_222)))
(let ((.def_224 (not .def_223)))
(let ((.def_230 (or .def_224 .def_229)))
(let ((.def_295 (and .def_230 .def_294)))
(let ((.def_215 (and .s.3.next .def_61)))
(let ((.def_216 (and .def_37 .def_215)))
(let ((.def_217 (and .def_35 .def_216)))
(let ((.def_218 (and .def_32 .def_217)))
(let ((.def_219 (and .def_29 .def_218)))
(let ((.def_220 (and .def_26 .def_219)))
(let ((.def_202 (<= main.n main.i)))
(let ((.def_86 (and .s.2 .def_85)))
(let ((.def_200 (and .def_17 .def_86)))
(let ((.def_201 (and .def_20 .def_200)))
(let ((.def_213 (and .def_201 .def_202)))
(let ((.def_214 (not .def_213)))
(let ((.def_221 (or .def_214 .def_220)))
(let ((.def_296 (and .def_221 .def_295)))
(let ((.def_91 (and .s.2.next .def_90)))
(let ((.def_206 (and .def_39 .def_91)))
(let ((.def_207 (and .def_37 .def_206)))
(let ((.def_208 (and .def_35 .def_207)))
(let ((.def_209 (and .def_32 .def_208)))
(let ((.def_210 (and .def_29 .def_209)))
(let ((.def_211 (and .def_26 .def_210)))
(let ((.def_203 (not .def_202)))
(let ((.def_204 (and .def_201 .def_203)))
(let ((.def_205 (not .def_204)))
(let ((.def_212 (or .def_205 .def_211)))
(let ((.def_297 (and .def_212 .def_296)))
(let ((.def_186 (<= 1 main.i)))
(let ((.def_196 (not .def_186)))
(let ((.def_70 (and .s.2 .def_69)))
(let ((.def_184 (and .def_17 .def_70)))
(let ((.def_185 (and .def_20 .def_184)))
(let ((.def_197 (and .def_185 .def_196)))
(let ((.def_198 (not .def_197)))
(let ((.def_141 (and .s.3.next .def_140)))
(let ((.def_142 (and .def_37 .def_141)))
(let ((.def_143 (and .def_35 .def_142)))
(let ((.def_144 (and .def_32 .def_143)))
(let ((.def_145 (and .def_29 .def_144)))
(let ((.def_146 (and .def_26 .def_145)))
(let ((.def_199 (or .def_146 .def_198)))
(let ((.def_298 (and .def_199 .def_297)))
(let ((.def_189 (and .s.3.next .def_47)))
(let ((.def_190 (and .def_37 .def_189)))
(let ((.def_191 (and .def_35 .def_190)))
(let ((.def_192 (and .def_32 .def_191)))
(let ((.def_193 (and .def_29 .def_192)))
(let ((.def_194 (and .def_26 .def_193)))
(let ((.def_187 (and .def_185 .def_186)))
(let ((.def_188 (not .def_187)))
(let ((.def_195 (or .def_188 .def_194)))
(let ((.def_299 (and .def_195 .def_298)))
(let ((.def_177 (and .s.3.next .def_176)))
(let ((.def_178 (and .def_37 .def_177)))
(let ((.def_179 (and .def_35 .def_178)))
(let ((.def_180 (and .def_32 .def_179)))
(let ((.def_181 (and .def_29 .def_180)))
(let ((.def_182 (and .def_26 .def_181)))
(let ((.def_173 (and .s.3 .def_57)))
(let ((.def_174 (and .def_20 .def_173)))
(let ((.def_175 (not .def_174)))
(let ((.def_183 (or .def_175 .def_182)))
(let ((.def_300 (and .def_183 .def_299)))
(let ((.def_166 (and .s.3.next .def_165)))
(let ((.def_167 (and .def_37 .def_166)))
(let ((.def_162 (* (- 1) main.i.next)))
(let ((.def_163 (+ main.i .def_162)))
(let ((.def_164 (= .def_163 (- 1))))
(let ((.def_168 (and .def_164 .def_167)))
(let ((.def_169 (and .def_32 .def_168)))
(let ((.def_170 (and .def_29 .def_169)))
(let ((.def_171 (and .def_26 .def_170)))
(let ((.def_159 (and .def_15 .s.3)))
(let ((.def_160 (and .def_20 .def_159)))
(let ((.def_161 (not .def_160)))
(let ((.def_172 (or .def_161 .def_171)))
(let ((.def_301 (and .def_172 .def_300)))
(let ((.def_154 (and .def_35 .def_153)))
(let ((.def_155 (and .def_32 .def_154)))
(let ((.def_156 (and .def_29 .def_155)))
(let ((.def_157 (and .def_26 .def_156)))
(let ((.def_149 (and .s.3 .def_148)))
(let ((.def_150 (and .def_20 .def_149)))
(let ((.def_151 (not .def_150)))
(let ((.def_158 (or .def_151 .def_157)))
(let ((.def_302 (and .def_158 .def_301)))
(let ((.def_137 (and .s.3 .def_136)))
(let ((.def_138 (and .def_20 .def_137)))
(let ((.def_139 (not .def_138)))
(let ((.def_147 (or .def_139 .def_146)))
(let ((.def_303 (and .def_147 .def_302)))
(let ((.def_120 (= .inputVar.0 0)))
(let ((.def_132 (not .def_120)))
(let ((.def_116 (and .s.3 .def_115)))
(let ((.def_117 (and .def_20 .def_116)))
(let ((.def_133 (and .def_117 .def_132)))
(let ((.def_134 (not .def_133)))
(let ((.def_92 (and .s.3.next .def_91)))
(let ((.def_93 (and .def_37 .def_92)))
(let ((.def_94 (and .def_35 .def_93)))
(let ((.def_95 (and .def_32 .def_94)))
(let ((.def_96 (and .def_29 .def_95)))
(let ((.def_97 (and .def_26 .def_96)))
(let ((.def_135 (or .def_97 .def_134)))
(let ((.def_304 (and .def_135 .def_303)))
(let ((.def_125 (and .s.3.next .def_124)))
(let ((.def_126 (and .def_37 .def_125)))
(let ((.def_127 (and .def_35 .def_126)))
(let ((.def_128 (and .def_32 .def_127)))
(let ((.def_129 (and .def_29 .def_128)))
(let ((.def_130 (and .def_26 .def_129)))
(let ((.def_121 (and .def_117 .def_120)))
(let ((.def_122 (not .def_121)))
(let ((.def_131 (or .def_122 .def_130)))
(let ((.def_305 (and .def_131 .def_304)))
(let ((.def_108 (and .s.3.next .def_107)))
(let ((.def_109 (and .def_37 .def_108)))
(let ((.def_103 (* (- 1) main.l.next)))
(let ((.def_104 (+ main.l .def_103)))
(let ((.def_105 (= .def_104 (- 1))))
(let ((.def_110 (and .def_105 .def_109)))
(let ((.def_111 (and .def_35 .def_110)))
(let ((.def_112 (and .def_32 .def_111)))
(let ((.def_113 (and .def_26 .def_112)))
(let ((.def_100 (and .s.3 .def_99)))
(let ((.def_101 (and .def_20 .def_100)))
(let ((.def_102 (not .def_101)))
(let ((.def_114 (or .def_102 .def_113)))
(let ((.def_306 (and .def_114 .def_305)))
(let ((.def_87 (and .s.3 .def_86)))
(let ((.def_88 (and .def_20 .def_87)))
(let ((.def_89 (not .def_88)))
(let ((.def_98 (or .def_89 .def_97)))
(let ((.def_307 (and .def_98 .def_306)))
(let ((.def_79 (and .s.4.next .def_48)))
(let ((.def_76 (* (- 1) main.k.next)))
(let ((.def_77 (+ main.k .def_76)))
(let ((.def_78 (= .def_77 (- 1))))
(let ((.def_80 (and .def_78 .def_79)))
(let ((.def_81 (and .def_35 .def_80)))
(let ((.def_82 (and .def_29 .def_81)))
(let ((.def_83 (and .def_26 .def_82)))
(let ((.def_71 (and .s.3 .def_70)))
(let ((.def_72 (and .def_20 .def_71)))
(let ((.def_73 (not .def_72)))
(let ((.def_84 (or .def_73 .def_83)))
(let ((.def_308 (and .def_84 .def_307)))
(let ((.def_64 (and .def_35 .def_63)))
(let ((.def_65 (and .def_32 .def_64)))
(let ((.def_66 (and .def_29 .def_65)))
(let ((.def_67 (and .def_26 .def_66)))
(let ((.def_59 (and .s.4 .def_58)))
(let ((.def_60 (not .def_59)))
(let ((.def_68 (or .def_60 .def_67)))
(let ((.def_309 (and .def_68 .def_308)))
(let ((.def_22 (and .def_18 .s.4)))
(let ((.def_23 (not .def_22)))
(let ((.def_54 (or .def_23 .def_53)))
(let ((.def_310 (and .def_54 .def_309)))
.def_310))))))))))))))))))))))))))))))))))))))))))))))))))))))))))))))))))))))))))))))))))))))))))))))))))))))))))))))))))))))))))))))))))))))))))))))))))))))))))))))))))))))))))))))))))))))))))))))))))))))))))))))))))))))))))))))))))))))))))))))))))))))))))))))))))))))))))))))))))))))))) (state |.s.1.next| |.s.0.next| |.s.2.next| |.s.3.next| |.s.4.next| |main.n.next| |main.l.next| |main.k.next| |main.i.next|))))
(assert (forall ((|.s.2| Bool) (|.s.0| Bool) (|.s.1| Bool) (|.s.0.next| Bool) (|.s.1.next| Bool) (|.s.2.next| Bool) (|.s.3.next| Bool) (|.s.4.next| Bool) (|main.i.next| Int) (|main.i| Int) (|main.k.next| Int) (|main.k| Int) (|main.l.next| Int) (|main.l| Int) (|main.n.next| Int) (|main.n| Int) (|.inputVar.0| Int) (|.s.4| Bool) (|.s.3| Bool)) (=> (state |.s.1| |.s.0| |.s.2| |.s.3| |.s.4| |main.n| |main.l| |main.k| |main.i|) (let ((.def_69 (and .s.1 .s.0)))
(let ((.def_14 (not .s.2)))
(let ((.def_136 (and .def_14 .def_69)))
(let ((.def_137 (and .s.3 .def_136)))
(let ((.def_20 (not .s.4)))
(let ((.def_138 (and .def_20 .def_137)))
(let ((.def_139 (not .def_138)))
.def_139))))))))))
(check-sat)
